solution status: optimal solution found
objective value:                     198660.362988004
d11(0,0)                                            1 	(obj:0)
d11(3,7)                                            1 	(obj:0)
d11(3,8)                                            1 	(obj:0)
d11(3,9)                                            1 	(obj:0)
d11(3,11)                                           1 	(obj:0)
d11(3,12)                                           1 	(obj:0)
d11(3,13)                                           1 	(obj:0)
d11(3,14)                                           1 	(obj:0)
d11(4,15)                                           1 	(obj:0)
d11(4,16)                                           1 	(obj:0)
d11(4,17)                                           1 	(obj:0)
d11(4,18)                                           1 	(obj:0)
d11(4,19)                                           1 	(obj:0)
d11(4,20)                                           1 	(obj:0)
d11(4,21)                                           1 	(obj:0)
d11(4,22)                                           1 	(obj:0)
d11(4,23)                                           1 	(obj:0)
d11(4,24)                                           1 	(obj:0)
d11(4,25)                                           1 	(obj:0)
d11(4,27)                                           1 	(obj:0)
d11(4,28)                                           1 	(obj:0)
d11(4,29)                                           1 	(obj:0)
d11(4,30)                                           1 	(obj:0)
d11(5,31)                                           1 	(obj:0)
d11(5,32)                                           1 	(obj:0)
d11(5,33)                                           1 	(obj:0)
d11(5,34)                                           1 	(obj:0)
d11(5,35)                                           1 	(obj:0)
d11(5,36)                                           1 	(obj:0)
d11(5,37)                                           1 	(obj:0)
d11(5,39)                                           1 	(obj:0)
d11(5,40)                                           1 	(obj:0)
d11(5,41)                                           1 	(obj:0)
d11(5,42)                                           1 	(obj:0)
d11(5,43)                                           1 	(obj:0)
d11(5,44)                                           1 	(obj:0)
d11(5,45)                                           1 	(obj:0)
d11(5,47)                                           1 	(obj:0)
d11(5,48)                                           1 	(obj:0)
d11(5,49)                                           1 	(obj:0)
d11(5,50)                           0.999999999999992 	(obj:0)
d11(5,51)                                           1 	(obj:0)
d11(5,52)                                           1 	(obj:0)
d11(5,53)                                           1 	(obj:0)
d11(5,54)                                           1 	(obj:0)
d11(5,55)                                           1 	(obj:0)
d11(5,56)                                           1 	(obj:0)
d11(5,57)                                           1 	(obj:0)
d11(5,58)                                           1 	(obj:0)
d11(5,59)                                           1 	(obj:0)
d11(5,60)                                           1 	(obj:0)
d11(5,61)                                           1 	(obj:0)
d11(5,62)                                           1 	(obj:0)
d11(6,63)                                           1 	(obj:0)
d11(6,65)                                           1 	(obj:0)
d11(6,67)                                           1 	(obj:0)
d11(6,71)                                           1 	(obj:0)
d11(6,73)                                           1 	(obj:0)
d11(6,75)                                           1 	(obj:0)
d11(6,77)                                           1 	(obj:0)
d11(6,79)                                           1 	(obj:0)
d11(6,81)                                           1 	(obj:0)
d11(6,83)                                           1 	(obj:0)
d11(6,85)                                           1 	(obj:0)
d11(6,87)                                           1 	(obj:0)
d11(6,89)                                           1 	(obj:0)
d11(6,91)                                           1 	(obj:0)
d11(6,93)                                           1 	(obj:0)
d11(6,95)                                           1 	(obj:0)
d11(6,97)                                           1 	(obj:0)
d11(6,99)                                           1 	(obj:0)
d11(6,101)                                          1 	(obj:0)
d11(6,103)                                          1 	(obj:0)
d11(6,105)                                          1 	(obj:0)
d11(6,107)                                          1 	(obj:0)
d11(6,109)                                          1 	(obj:0)
d11(6,111)                                          1 	(obj:0)
d11(6,113)                                          1 	(obj:0)
d11(6,115)                                          1 	(obj:0)
d11(6,117)                                          1 	(obj:0)
d11(6,119)                                          1 	(obj:0)
d11(6,121)                                          1 	(obj:0)
d11(6,123)                                          1 	(obj:0)
d11(6,125)                                          1 	(obj:0)
d12(1,1)                                            1 	(obj:0)
d12(1,2)                                            1 	(obj:0)
d12(2,4)                                            1 	(obj:0)
d12(2,6)                                            1 	(obj:0)
d12(6,64)                                           1 	(obj:0)
d12(6,66)                                           1 	(obj:0)
d12(6,68)                                           1 	(obj:0)
d12(6,70)                                           1 	(obj:0)
d12(6,72)                                           1 	(obj:0)
d12(6,74)                                           1 	(obj:0)
d12(6,76)                                           1 	(obj:0)
d12(6,78)                                           1 	(obj:0)
d12(6,80)                                           1 	(obj:0)
d12(6,82)                                           1 	(obj:0)
d12(6,84)                                           1 	(obj:0)
d12(6,86)                                           1 	(obj:0)
d12(6,88)                                           1 	(obj:0)
d12(6,90)                                           1 	(obj:0)
d12(6,92)                                           1 	(obj:0)
d12(6,94)                                           1 	(obj:0)
d12(6,96)                                           1 	(obj:0)
d12(6,98)                                           1 	(obj:0)
d12(6,100)                                          1 	(obj:0)
d12(6,102)                                          1 	(obj:0)
d12(6,104)                                          1 	(obj:0)
d12(6,106)                                          1 	(obj:0)
d12(6,108)                                          1 	(obj:0)
d12(6,110)                                          1 	(obj:0)
d12(6,112)                                          1 	(obj:0)
d12(6,114)                                          1 	(obj:0)
d12(6,116)                                          1 	(obj:0)
d12(6,118)                                          1 	(obj:0)
d12(6,120)                                          1 	(obj:0)
d12(6,122)                                          1 	(obj:0)
d12(6,124)                                          1 	(obj:0)
d12(6,126)                                          1 	(obj:0)
d21(3,7)                                            1 	(obj:0)
d21(4,15)                                           1 	(obj:0)
d21(4,16)                                           1 	(obj:0)
d21(4,17)                                           1 	(obj:0)
d21(4,19)                                           1 	(obj:0)
d21(4,23)                                           1 	(obj:0)
d21(5,31)                                           1 	(obj:0)
d21(5,32)                                           1 	(obj:0)
d21(5,33)                                           1 	(obj:0)
d21(5,34)                                           1 	(obj:0)
d21(5,35)                                           1 	(obj:0)
d21(5,36)                                           1 	(obj:0)
d21(5,37)                                           1 	(obj:0)
d21(5,39)                                           1 	(obj:0)
d21(5,40)                                           1 	(obj:0)
d21(5,41)                                           1 	(obj:0)
d21(5,43)                                           1 	(obj:0)
d21(5,47)                                           1 	(obj:0)
d21(5,48)                                           1 	(obj:0)
d21(5,49)                                           1 	(obj:0)
d21(5,51)                                           1 	(obj:0)
d21(5,55)                                           1 	(obj:0)
d21(6,63)                                           1 	(obj:0)
d21(6,64)                                           1 	(obj:0)
d21(6,65)                                           1 	(obj:0)
d21(6,66)                                           1 	(obj:0)
d21(6,67)                                           1 	(obj:0)
d21(6,68)                                           1 	(obj:0)
d21(6,69)                                           1 	(obj:0)
d21(6,70)                                           1 	(obj:0)
d21(6,71)                                           1 	(obj:0)
d21(6,72)                                           1 	(obj:0)
d21(6,73)                                           1 	(obj:0)
d21(6,74)                                           1 	(obj:0)
d21(6,75)                                           1 	(obj:0)
d21(6,76)                                           1 	(obj:0)
d21(6,79)                                           1 	(obj:0)
d21(6,80)                                           1 	(obj:0)
d21(6,81)                                           1 	(obj:0)
d21(6,82)                                           1 	(obj:0)
d21(6,83)                                           1 	(obj:0)
d21(6,84)                                           1 	(obj:0)
d21(6,85)                                           1 	(obj:0)
d21(6,87)                                           1 	(obj:0)
d21(6,88)                                           1 	(obj:0)
d21(6,89)                                           1 	(obj:0)
d21(6,91)                                           1 	(obj:0)
d21(6,95)                                           1 	(obj:0)
d21(6,96)                                           1 	(obj:0)
d21(6,97)                                           1 	(obj:0)
d21(6,98)                                           1 	(obj:0)
d21(6,99)                                           1 	(obj:0)
d21(6,100)                                          1 	(obj:0)
d21(6,103)                                          1 	(obj:0)
d21(6,104)                                          1 	(obj:0)
d21(6,105)                                          1 	(obj:0)
d21(6,107)                                          1 	(obj:0)
d21(6,111)                                          1 	(obj:0)
d21(6,112)                                          1 	(obj:0)
d21(6,113)                                          1 	(obj:0)
d21(6,115)                                          1 	(obj:0)
d21(6,119)                                          1 	(obj:0)
d22(2,6)                                            1 	(obj:0)
d22(3,14)                                           1 	(obj:0)
d22(6,126)                                          1 	(obj:0)
y2(6,100)                            1385.48851144896 	(obj:0)
y2(6,102)                            1385.48851144896 	(obj:0)
y2(6,104)                            1385.48851144896 	(obj:0)
y2(6,106)                            1385.48851144896 	(obj:0)
y2(6,108)                            1385.48851144896 	(obj:0)
y2(6,110)                            1385.48851144896 	(obj:0)
y2(6,112)                            1385.48851144895 	(obj:0)
y2(6,114)                            1385.48851144896 	(obj:0)
y2(6,116)                            1385.48851144895 	(obj:0)
y2(6,118)                            1385.48851144896 	(obj:0)
y2(6,120)                            1385.48851144896 	(obj:0)
y2(6,122)                            1385.48851144896 	(obj:0)
y2(6,124)                            1385.48851144895 	(obj:0)
y2(6,126)                            1385.48851144896 	(obj:0)
STE(1,1)                             4965.44623533036 	(obj:0)
STE(0,0)                                         4725 	(obj:0)
STE(1,2)                              6383.2498988803 	(obj:0)
STE(2,3)                             4587.44623533036 	(obj:0)
STE(2,4)                             5903.66032120687 	(obj:0)
STE(2,5)                              6005.2498988803 	(obj:0)
STE(2,6)                             7321.46398475681 	(obj:0)
STE(3,7)                             2551.19633644155 	(obj:0)
STE(3,8)                             4209.44623533036 	(obj:0)
STE(3,9)                             3867.41042231805 	(obj:0)
STE(3,10)                            5525.66032120687 	(obj:0)
STE(3,11)                            3968.99999999148 	(obj:0)
STE(3,12)                             5627.2498988803 	(obj:0)
STE(3,13)                            5285.21408586799 	(obj:0)
STE(3,14)                            6943.46398475681 	(obj:0)
STE(4,15)                              514.9464375527 	(obj:0)
STE(4,16)                            2173.19633644155 	(obj:0)
STE(4,17)                            2173.19633644152 	(obj:0)
STE(4,18)                             3831.4462353303 	(obj:0)
STE(4,19)                            1831.16052342921 	(obj:0)
STE(4,20)                            3489.41042231799 	(obj:0)
STE(4,21)                            3489.41042231802 	(obj:0)
STE(4,22)                            5147.66032120687 	(obj:0)
STE(4,23)                            1932.75010110264 	(obj:0)
STE(4,24)                            3590.99999999148 	(obj:0)
STE(4,25)                            3590.99999999146 	(obj:0)
STE(4,26)                             5249.2498988803 	(obj:0)
STE(4,27)                            3248.96418697914 	(obj:0)
STE(4,28)                            4907.21408586796 	(obj:0)
STE(4,29)                            4907.21408586796 	(obj:0)
STE(4,30)                            6565.46398475681 	(obj:0)
STE(5,31)                           -1521.30346133615 	(obj:0)
STE(5,32)                              136.9464375527 	(obj:0)
STE(5,33)                              136.9464375527 	(obj:0)
STE(5,34)                            1795.19633644161 	(obj:0)
STE(5,35)                            136.946437552672 	(obj:0)
STE(5,36)                            1795.19633644158 	(obj:0)
STE(5,37)                            1795.19633644146 	(obj:0)
STE(5,38)                             3453.4462353303 	(obj:0)
STE(5,39)                           -205.089375459641 	(obj:0)
STE(5,40)                            1453.16052342927 	(obj:0)
STE(5,41)                            1453.16052342914 	(obj:0)
STE(5,42)                            3111.41042231805 	(obj:0)
STE(5,43)                            1453.16052342918 	(obj:0)
STE(5,44)                            3111.41042231799 	(obj:0)
STE(5,45)                            3111.41042231802 	(obj:0)
STE(5,46)                            4769.66032120687 	(obj:0)
STE(5,47)                           -103.499797786207 	(obj:0)
STE(5,48)                            1554.75010110264 	(obj:0)
STE(5,49)                            1554.75010110264 	(obj:0)
STE(5,50)                                        3213 	(obj:0)
STE(5,51)                            1554.75010110261 	(obj:0)
STE(5,52)                            3212.99999999152 	(obj:0)
STE(5,53)                            3212.99999999146 	(obj:0)
STE(5,54)                             4871.2498988803 	(obj:0)
STE(5,55)                             1212.7142880903 	(obj:0)
STE(5,56)                            2870.96418697921 	(obj:0)
STE(5,57)                            2870.96418697912 	(obj:0)
STE(5,58)                            4529.21408586796 	(obj:0)
STE(5,59)                            2870.96418697912 	(obj:0)
STE(5,60)                            4529.21408586796 	(obj:0)
STE(5,61)                            4529.21408586796 	(obj:0)
STE(5,62)                            6187.46398475681 	(obj:0)
STE(6,63)                           -1899.30346133615 	(obj:0)
STE(6,64)                            -583.08937545964 	(obj:0)
STE(6,65)                             -241.0535624473 	(obj:0)
STE(6,66)                            1075.16052342921 	(obj:0)
STE(6,67)                             -241.0535624473 	(obj:0)
STE(6,68)                            1075.16052342921 	(obj:0)
STE(6,69)                            1417.19633644161 	(obj:0)
STE(6,70)                            2733.41042231811 	(obj:0)
STE(6,71)                           -241.053562447328 	(obj:0)
STE(6,72)                            1075.16052342918 	(obj:0)
STE(6,73)                            1417.19633644158 	(obj:0)
STE(6,74)                            2733.41042231809 	(obj:0)
STE(6,75)                            1417.19633644146 	(obj:0)
STE(6,76)                            2733.41042231796 	(obj:0)
STE(6,77)                             3075.4462353303 	(obj:0)
STE(6,78)                            4391.66032120681 	(obj:0)
STE(6,79)                           -583.089375459641 	(obj:0)
STE(6,80)                            733.124710416865 	(obj:0)
STE(6,81)                            1075.16052342927 	(obj:0)
STE(6,82)                            2391.37460930577 	(obj:0)
STE(6,83)                            1075.16052342908 	(obj:0)
STE(6,84)                            2391.37460930565 	(obj:0)
STE(6,85)                            2733.41042231805 	(obj:0)
STE(6,86)                            4049.62450819456 	(obj:0)
STE(6,87)                            1075.16052342918 	(obj:0)
STE(6,88)                            2391.37460930568 	(obj:0)
STE(6,89)                            2733.41042231799 	(obj:0)
STE(6,90)                             4049.6245081945 	(obj:0)
STE(6,91)                            2733.41042231802 	(obj:0)
STE(6,92)                            4049.62450819453 	(obj:0)
STE(6,93)                            4391.66032120687 	(obj:0)
STE(6,94)                            5707.87440708337 	(obj:0)
STE(6,95)                           -481.499797786207 	(obj:0)
STE(6,96)                            834.714288090299 	(obj:0)
STE(6,97)                            1176.75010110264 	(obj:0)
STE(6,98)                            2492.96418697914 	(obj:0)
STE(6,99)                            1176.75010110264 	(obj:0)
STE(6,100)                           2492.96418697915 	(obj:0)
STE(6,101)                                       2835 	(obj:0)
STE(6,102)                           4151.21408587651 	(obj:0)
STE(6,103)                           1176.75010110261 	(obj:0)
STE(6,104)                           2492.96418697912 	(obj:0)
STE(6,105)                           2834.99999999152 	(obj:0)
STE(6,106)                           4151.21408586803 	(obj:0)
STE(6,107)                           2834.99999999146 	(obj:0)
STE(6,108)                           4151.21408586797 	(obj:0)
STE(6,109)                            4493.2498988803 	(obj:0)
STE(6,110)                           5809.46398475682 	(obj:0)
STE(6,111)                           834.714288090299 	(obj:0)
STE(6,112)                            2150.9283739668 	(obj:0)
STE(6,113)                           2492.96418697921 	(obj:0)
STE(6,114)                           3809.17827285572 	(obj:0)
STE(6,115)                           2492.96418697912 	(obj:0)
STE(6,116)                           3809.17827285562 	(obj:0)
STE(6,117)                           4151.21408586796 	(obj:0)
STE(6,118)                           5467.42817174447 	(obj:0)
STE(6,119)                           2492.96418697912 	(obj:0)
STE(6,120)                           3809.17827285563 	(obj:0)
STE(6,121)                           4151.21408586796 	(obj:0)
STE(6,122)                           5467.42817174447 	(obj:0)
STE(6,123)                           4151.21408586796 	(obj:0)
STE(6,124)                           5467.42817174447 	(obj:0)
STE(6,125)                           5809.46398475681 	(obj:0)
STE(6,126)                           7125.67807063332 	(obj:0)
BG(5)                                4196.29249897959 	(obj:10)
WB(1)                                3259.55177567504 	(obj:0)
AVE(1)                               3259.55177567504 	(obj:0)
WB(2)                                3259.55588804169 	(obj:0)
AVE(2)                               3259.55588804169 	(obj:0)
AVE(3)                               3579.36165209166 	(obj:0)
WB(4)                                3579.36576445831 	(obj:0)
AVE(4)                               3579.36576445831 	(obj:0)
WB(5)                                3472.77007794174 	(obj:0)
AVE(5)                               3472.77007794174 	(obj:0)
WB(6)                                 372.95195629129 	(obj:0)
AVE(6)                                3046.3618950668 	(obj:0)
WG(3)                                3579.36165209156 	(obj:10)
WG(6)                                2673.40993877551 	(obj:10)
BG(1)                                1930.33892432371 	(obj:10)
BG(2)                                2673.40993877551 	(obj:10)
BG(3)                                616.930846888002 	(obj:10)
BG(4)                                4196.29249897959 	(obj:10)
y1(3,7)                              1492.42490899994 	(obj:0)
y1(3,9)                              1492.42490899994 	(obj:0)
y1(3,11)                             1492.42490899994 	(obj:0)
y1(3,13)                             1492.42490899994 	(obj:0)
y1(4,15)                             1492.42490899996 	(obj:0)
y1(4,17)                             1492.42490899996 	(obj:0)
y1(4,19)                             1492.42490899996 	(obj:0)
y1(4,21)                             1492.42490899996 	(obj:0)
y1(4,23)                             1492.42490899996 	(obj:0)
y1(4,25)                             1492.42490899996 	(obj:0)
y1(4,27)                             1492.42490899996 	(obj:0)
y1(4,29)                             1492.42490899996 	(obj:0)
y1(5,31)                             1492.42490899996 	(obj:0)
y1(5,33)                             1492.42490899996 	(obj:0)
y1(5,35)                             1492.42490899996 	(obj:0)
y1(5,37)                             1492.42490899996 	(obj:0)
y1(5,39)                             1492.42490899996 	(obj:0)
y1(5,41)                             1492.42490899996 	(obj:0)
y1(5,43)                             1492.42490899996 	(obj:0)
y1(5,45)                             1492.42490899996 	(obj:0)
y1(5,47)                             1492.42490899996 	(obj:0)
y1(5,49)                             1492.42490899996 	(obj:0)
y1(5,50)                         -7.66362063586712e-009 	(obj:0)
y1(5,51)                             1492.42490899996 	(obj:0)
y1(5,53)                             1492.42490899996 	(obj:0)
y1(5,55)                             1492.42490899996 	(obj:0)
y1(5,57)                             1492.42490899996 	(obj:0)
y1(5,59)                             1492.42490899996 	(obj:0)
y1(5,61)                             1492.42490899996 	(obj:0)
y2(1,1)                              650.996037189856 	(obj:0)
y2(1,2)                              2143.42094618979 	(obj:0)
y2(2,4)                              1385.48851144895 	(obj:0)
y2(2,6)                              1385.48851144895 	(obj:0)
y2(6,64)                             1385.48851144895 	(obj:0)
y2(6,66)                             1385.48851144895 	(obj:0)
y2(6,68)                             1385.48851144895 	(obj:0)
y2(6,70)                             1385.48851144895 	(obj:0)
y2(6,72)                             1385.48851144895 	(obj:0)
y2(6,74)                             1385.48851144895 	(obj:0)
y2(6,76)                             1385.48851144895 	(obj:0)
y2(6,78)                             1385.48851144895 	(obj:0)
y2(6,80)                             1385.48851144895 	(obj:0)
y2(6,82)                             1385.48851144895 	(obj:0)
y2(6,84)                             1385.48851144895 	(obj:0)
y2(6,86)                             1385.48851144896 	(obj:0)
y2(6,88)                             1385.48851144895 	(obj:0)
y2(6,90)                             1385.48851144895 	(obj:0)
y2(6,92)                             1385.48851144895 	(obj:0)
y2(6,94)                             1385.48851144895 	(obj:0)
y2(6,96)                             1385.48851144895 	(obj:0)
y2(6,98)                             1385.48851144895 	(obj:0)
